\ Model QCP
\ LP format - for model browsing. Use MPS format to capture full model detail.
Minimize
  z + 4 y
Subject To
 Cut_0: z + [ ] >= 4277
 Cut_1: z + [ 22.73202614379085 y ^2 ] >= 24012.24836601307
 Cut_2: z + [ 6.448979591836753 y ^2 ] >= 11284.36734693879
 Cut_3: z + [ 0.7587719298245612 y ^2 ] >= 5356.714912280701
 Cut_4: z + [ 0.326923076923077 y ^2 ] >= 4792.423076923077
 Cut_5: z + [ 0.0344827586206904 y ^2 ] >= 4334.034482758622
 Cut_6: z + [ 0.0344827586206908 y ^2 ] >= 4334.034482758622
 Cut_7: z + [ 0.0344827586206908 y ^2 ] >= 4334.034482758622
 Cut_8: z + [ 0.0344827586206908 y ^2 ] >= 4334.034482758622
 Cut_9: z + [ 0.0344827586206908 y ^2 ] >= 4334.034482758622
Bounds
 4277 <= z <= 35002
 27.91057147390573 <= y <= 40.66939881532551
End
